data/results/2026_03_24_00_33_51_set_set_set_s006_g006_max.sol
# Objective value = 88
c_n0n3n4n5n9 5
c_n0n3n4n7n9 5
c_n1n7n9n10 4
c_n3n4n5n9 3
c_n0n4n5n9 3
c_n0n3n5n9 3
c_n0n3n4n9 4
c_n0n3n4n5 4
c_n3n4n7n9 3
c_n0n4n7n9 4
c_n0n3n7n9 3
c_n0n3n4n7 3
c_n7n9n10 3
c_n1n9n10 2
c_n1n7n10 3
c_n1n7n9 2
c_n4n5n9 1
c_n3n5n9 2
c_n3n4n9 2
c_n3n4n5 3
c_n0n5n9 2
c_n0n4n9 3
c_n0n4n5 2
c_n0n3n9 2
c_n0n3n5 2
c_n0n3n4 3
c_n4n7n9 2
c_n3n7n9 2
c_n3n4n7 2
c_n0n7n9 3
c_n0n4n7 2
c_n0n3n7 1
y_n0n1 1
y_n1n2 0
y_n0n2 0
y_n1n3 0
y_n0n3 0
y_n1n4 0
y_n0n4 0
y_n1n5 0
y_n0n5 0
y_n1n6 1
y_n0n6 1
y_n1n7 0
y_n0n7 1
y_n1n8 1
y_n0n8 1
y_n1n9 0
y_n0n9 1
y_n1n10 0
y_n0n10 1
y_n2n3 1
y_n2n4 1
y_n2n5 1
y_n2n6 1
y_n2n7 1
y_n2n8 1
y_n2n9 1
y_n2n10 1
y_n3n4 1
y_n3n5 0
y_n3n6 1
y_n3n7 1
y_n3n8 1
y_n3n9 1
y_n3n10 1
y_n4n5 0
y_n4n6 1
y_n4n7 1
y_n4n8 1
y_n4n9 1
y_n4n10 1
y_n5n6 1
y_n5n7 1
y_n5n8 1
y_n5n9 1
y_n5n10 1
y_n6n7 0
y_n6n8 1
y_n6n9 0
y_n6n10 0
y_n7n8 1
y_n7n9 0
y_n7n10 1
y_n8n9 0
y_n8n10 0
y_n9n10 1
pos_n0 4
pos_n1 8
pos_n2 0
pos_n3 2
pos_n4 3
pos_n5 1
pos_n6 9
pos_n7 6
pos_n8 10
pos_n9 5
pos_n10 7
z_n4n5 0
z_n3n4 1
z_n4n9 0
z_n4n7 0
z_n4n6 0
z_n3n5 1
z_n5n9 0
z_n5n7 0
z_n5n6 0
z_n3n9 0
z_n3n7 0
z_n3n6 0
z_n7n9 1
z_n6n9 0
z_n6n7 0
z_n7n10 1
z_n7n8 0
z_n9n10 0
z_n8n9 0
z_n8n10 0
z_n0n4 1
z_n0n9 1
z_n0n5 0
z_n0n7 0
z_n0n3 0
z_n1n9 0
z_n2n9 0
z_n0n1 0
z_n0n10 0
z_n0n2 0
z_n1n4 0
z_n4n10 0
z_n2n4 0
z_n1n3 0
z_n3n10 0
z_n2n3 0
z_n1n10 1
z_n1n2 0
z_n2n10 0
z_n1n5 0
z_n5n10 0
z_n1n7 0
